0000000000000000
0000000000000000
0000000000000000
0000000000000000
0000000000000000
0000111111100000
0000000000100000
0000000000100000
0000000000100000
0000000000100000
0000000000100000
0000111111110000
0000000000000000
0000000000000000
0000000000000000
0000000000000000
